
--- Job bchfcnet.gms Start 02/08/22 12:28:37 34.3.0 rac355f3 WEX-WEI x86 64bit/MS Windows
--- Applying:
    C:\GAMS\34\gmsprmNT.txt
--- GAMS Parameters defined
    Input C:\Users\dekhi\Desktop\gamsworld\FCNetLib\test\bchfcnet.gms
    PageSize 0
    ScrDir C:\Users\dekhi\Desktop\gamsworld\FCNetLib\test\225a\
    SysDir C:\GAMS\34\
    LogOption 3
    ErrMsg 1
    ErrorLog 99
    IDE 1
    ResLim 3600
    LstTitleLeftAligned 1
Licensee: Eval License                                   S211214|0002AW-GEN
          Ostfalia Hochschule fuer angewandte Wissenschaften        DCE1645
          C:\Users\dekhi\Documents\GAMS\gamslice.txt
          License Admin: Mohamed Ali Dekhil, dekhil.medali@gmail.com       
          Evaluation license: Not for commercial or production use
GAMS 34.3.0   Copyright (C) 1987-2021 GAMS Development. All rights reserved
--- Starting compilation
--- bchfcnet.gms(34) 2 Mb
--- . decl.gms(15) 2 Mb
--- bchfcnet.gms(38) 2 Mb
--- . g200x740d.inc(1606) 3 Mb
--- bchfcnet.gms(67) 3 Mb
--- . equs.gms(20) 3 Mb
--- bchfcnet.gms(97) 3 Mb
--- call rm -f bchout_i.gdx startcut.txt startheur.txt cuthist.gdx agap.txt rgap.txt cntfail.txt
--- bchfcnet.gms(118) 3 Mb
--- Starting execution: elapsed 0:00:00.075
--- bchfcnet.gms(1664) 4 Mb
--- GDX File (execute_unload) C:\Users\dekhi\Desktop\gamsworld\FCNetLib\test\net.gdx
--- bchfcnet.gms(1755) 4 Mb
--- GDXin=C:\Users\dekhi\Desktop\gamsworld\FCNetLib\test\points\g200x740d.gdx
--- GDX File (execute_load) C:\Users\dekhi\Desktop\gamsworld\FCNetLib\test\points\g200x740d.gdx
--- Generating MIP model master
--- bchfcnet.gms(1759) 5 Mb
---   941 rows  1,481 columns  4,441 non-zeroes
---   740 discrete-columns
--- Executing CPLEX (Solvelink=2): elapsed 0:00:00.118

IBM ILOG CPLEX   34.3.0 rac355f3 Released Feb 25, 2021 WEI x86 64bit/MS Window

--- GAMS/Cplex Link licensed for continuous and discrete problems.

Reading parameter(s) from "C:\Users\dekhi\Desktop\gamsworld\FCNetLib\test\cplex.op2"
>>  mipstart 1
Finished reading from "C:\Users\dekhi\Desktop\gamsworld\FCNetLib\test\cplex.op2"

--- Space for names approximately 0.05 Mb
--- Use option 'names no' to turn use of names off
--- GMO memory 0.78 Mb (peak 0.79 Mb)
--- Dictionary memory 0.00 Mb
--- Cplex 20.1.0.0 link memory 0.04 Mb (peak 0.16 Mb)
--- Starting Cplex

Version identifier: 20.1.0.0 | 2020-11-10 | 9bedb6d68
CPXPARAM_Threads                                 1
CPXPARAM_MIP_Display                             4
CPXPARAM_TimeLimit                               3600
CPXPARAM_MIP_Tolerances_AbsMIPGap                0
CPXPARAM_MIP_Tolerances_MIPGap                   0
Generic callback                                 0x50
Processing 1 MIP starts.
MIP start 'm1' defined solution with objective 586038.0000.
1 of 1 MIP starts provided solutions.
MIP start 'm1' defined initial solution with objective 586038.0000.
Tried aggregator 2 times.
MIP Presolve eliminated 200 rows and 3 columns.
MIP Presolve added 397 rows and 0 columns.
Aggregator did 1 substitutions.
Reduced MIP has 1136 rows, 1477 columns, and 3351 nonzeros.
Reduced MIP has 739 binaries, 0 generals, 0 SOSs, and 0 indicators.
Presolve time = 0.00 sec. (7.62 ticks)
Probing time = 0.00 sec. (0.20 ticks)
Tried aggregator 1 time.
Detecting symmetries...
Reduced MIP has 1136 rows, 1477 columns, and 3351 nonzeros.
Reduced MIP has 739 binaries, 0 generals, 0 SOSs, and 0 indicators.
Presolve time = 0.00 sec. (5.86 ticks)
Probing time = 0.00 sec. (0.20 ticks)
Clique table members: 1.
MIP emphasis: balance optimality and feasibility.
MIP search method: dynamic search.
Parallel mode: none, using 1 thread.
Tried aggregator 1 time.
LP Presolve eliminated 540 rows and 541 columns.
Aggregator did 199 substitutions.
Reduced LP has 397 rows, 737 columns, and 1870 nonzeros.
Presolve time = 0.00 sec. (0.86 ticks)

Iteration log . . .
Iteration:     1   Dual objective     =         90377.547000
Iteration:    62   Dual objective     =        388851.736300
Iteration:   124   Dual objective     =        496619.635000
Iteration:   201   Dual objective     =        547452.305900
Initializing dual steep norms . . .
Root relaxation solution time = 0.00 sec. (3.85 ticks)

        Nodes                                         Cuts/
   Node  Left     Objective  IInf  Best Integer    Best Bound    ItCnt     Gap

*     0+    0                       586038.0000    90000.0000            84.64%
Found incumbent of value 586038.000000 after 0.02 sec. (19.84 ticks)
      0     0   548918.9429   165   586038.0000   548918.9429      217    6.33%
      0     0   577640.3384   230   586038.0000     Cuts: 384      541    1.43%
      0     0   582948.9931   166   586038.0000     Cuts: 384      697    0.53%
      0     0   584587.7949   151   586038.0000     Cuts: 221      812    0.25%
      0     0   585065.4445   124   586038.0000     Cuts: 154      884    0.17%
      0     0   585404.0037   160   586038.0000     Cuts: 136      980    0.11%
Detecting symmetries...
      0     0   585494.2299    77   586038.0000     Cuts: 135     1034    0.09%
      0     0   585568.6414    65   586038.0000      Cuts: 67     1071    0.08%
      0     0   585703.6201   100   586038.0000      Cuts: 64     1132    0.06%
      0     0   585765.3504    45   586038.0000      Cuts: 59     1164    0.05%
      0     0   585777.3770    37   586038.0000      Cuts: 22     1186    0.04%
      0     0   585792.7001    48   586038.0000      Cuts: 14     1200    0.04%
Detecting symmetries...
      0     2   585792.7001    48   586038.0000   585793.0832     1200    0.04%
Elapsed time = 0.28 sec. (278.46 ticks, tree = 0.01 MB, solutions = 1)

Cover cuts applied:  88
Implied bound cuts applied:  13
Flow cuts applied:  286
Mixed integer rounding cuts applied:  66
Flow path cuts applied:  87
Multi commodity flow cuts applied:  1
Lift and project cuts applied:  10
Gomory fractional cuts applied:  85

Root node processing (before b&c):
  Real time             =    0.28 sec. (278.45 ticks)
Sequential b&c:
  Real time             =    0.06 sec. (59.07 ticks)
                          ------------
Total (root+branch&cut) =    0.34 sec. (337.51 ticks)

--- MIP status (101): integer optimal solution.
--- Cplex Time: 0.34sec (det. 337.52 ticks)

--- Fixing integer variables and solving final LP...

Version identifier: 20.1.0.0 | 2020-11-10 | 9bedb6d68
CPXPARAM_Advance                                 2
CPXPARAM_Threads                                 1
CPXPARAM_MIP_Display                             4
CPXPARAM_TimeLimit                               3600
CPXPARAM_MIP_Tolerances_AbsMIPGap                0
CPXPARAM_MIP_Tolerances_MIPGap                   0
Tried aggregator 1 time.
LP Presolve eliminated 940 rows and 1481 columns.
All rows and columns eliminated.
Presolve time = 0.01 sec. (0.56 ticks)

--- Fixed MIP status (1): optimal.
--- Cplex Time: 0.01sec (det. 0.96 ticks)


Proven optimal solution
MIP Solution:       586038.000000    (1500 iterations, 38 nodes)
Final Solve:        586038.000000    (0 iterations)

Best possible:      586038.000000
Absolute gap:            0.000000
Relative gap:            0.000000

--- Reading solution for model master
*** Status: Normal completion
--- Job bchfcnet.gms Stop 02/08/22 12:28:38 elapsed 0:00:00.519
